NAME : input200_2.txt .out.tour
COMMENT : Tour for input200_2.txt .tsp (Length 2784.27)
TYPE : TOUR
DIMENSION : 200
TOUR_SECTION
1
56
144
190
20
180
62
118
101
199
41
152
120
146
3
119
155
195
100
21
4
108
54
198
191
132
7
22
51
95
187
87
18
14
29
6
182
172
89
84
93
104
114
49
90
52
11
99
109
153
12
45
76
179
60
35
162
36
31
16
112
156
142
92
116
133
143
15
157
47
196
200
13
138
30
164
82
113
127
102
81
147
126
181
80
167
185
77
39
151
85
59
110
184
27
137
44
178
139
106
28
150
129
58
5
86
38
166
98
197
78
136
186
57
40
32
125
193
9
160
19
33
96
173
71
117
83
175
145
177
42
194
176
55
148
169
158
48
26
73
170
188
70
189
67
74
111
183
122
53
121
37
43
123
8
97
46
149
124
75
24
2
66
64
141
135
154
25
63
79
91
94
174
65
88
34
140
168
72
130
105
131
134
17
159
23
10
171
50
68
128
163
161
107
165
115
61
103
69
192
1
